data/MCDM/NO_CORR/GEN_FROM_60/14_ITEMS_1000_GEN/K5014W02.KNP.mps
NAME          BLANK   
ROWS
 N  OBJROW
 L  R0000000
COLUMNS
    C0000000  OBJROW     -393.         R0000000  862.        
    C0000001  OBJROW     -706.         R0000000  44.         
    C0000002  OBJROW     -720.         R0000000  807.        
    C0000003  OBJROW     -961.         R0000000  567.        
    C0000004  OBJROW     -63.          R0000000  233.        
    C0000005  OBJROW     -587.         R0000000  328.        
    C0000006  OBJROW     -286.         R0000000  369.        
    C0000007  OBJROW     -733.         R0000000  395.        
    C0000008  OBJROW     -755.         R0000000  602.        
    C0000009  OBJROW     -848.         R0000000  719.        
    C0000010  OBJROW     -1.           R0000000  434.        
    C0000011  OBJROW     -938.         R0000000  712.        
    C0000012  OBJROW     -202.         R0000000  985.        
    C0000013  OBJROW     -63.          R0000000  217.        
RHS
    RHS       R0000000  14144.      
BOUNDS
 BV BOUND     C0000000  1.          
 BV BOUND     C0000001  1.          
 BV BOUND     C0000002  1.          
 BV BOUND     C0000003  1.          
 BV BOUND     C0000004  1.          
 BV BOUND     C0000005  1.          
 BV BOUND     C0000006  1.          
 BV BOUND     C0000007  1.          
 BV BOUND     C0000008  1.          
 BV BOUND     C0000009  1.          
 BV BOUND     C0000010  1.          
 BV BOUND     C0000011  1.          
 BV BOUND     C0000012  1.          
 BV BOUND     C0000013  1.          
ENDATA
