data/MCDM/NO_CORR/GEN_FROM_60/14_ITEMS_1000_GEN/K5014W02.KNP.txt
N 14
M 15
LC 14
LC 15
LC 16
LC 17
LC 18
LC 19
LC 20
LC 21
LC 22
LC 23
LC 24
LC 25
LC 26
LC 27
LR 1
LR 2
LR 3
LR 4
LR 5
LR 6
LR 7
LR 8
LR 9
LR 10
LR 11
LR 12
LR 13
LR 14
LR 15
LO -393
LO -706
LO -720
LO -961
LO -63
LO -587
LO -286
LO -733
LO -755
LO -848
LO -1
LO -938
LO -202
LO -63
OS 1
IC 413
IC 848
IC 315
IC 67
IC 469
IC 830
IC 243
IC 995
IC 992
IC 429
IC 148
IC 103
IC 62
IC 962
IB 3438
